ascending 19 20 26 19 23 26 19 23 26 19 22 26 19 21 26 43 47 49 51 53 55 57 38 28 23 12 15 14 23 7 10 13 39 47 49 51 53 55 44 47 49 51 53 56 57 44 47 49 51 53 55 57 18 33 27 39 47 49 51 39 47 49 44 47 50 51 53 55 57 29 32 46 47 49 52 53 55 57 18 33 28 5 6 6 16 19 22 26 19 23 26 19 23 26 19 23 26 11 15 14 20 20 23 22 7 8 8 8 10 13 39 47 49 51 53 55 57 45 47 49 51 53 55 57 35 28 39 47 49 51 53 55 57 35 28 39 47 49 51 53 55 57 45 47 49 51 53 55 57 35 28 39 47 49 51 39 47 49 52 53 55 57 45 47 49 51 53 55 57 35 28 17 33 28 5 6 6 6 6 6 16 43 47 49 51 53 55 57 38 28 20 12 15 14 21 7 10 13 39 47 49 51 53 55 57 42 47 49 51 53 55 57 44 47 49 51 53 55 57 39 47 49 51 53 55 57 29 30 30 30 32 36 28 39 47 49 51 53 39 47 49 51 54 55 57 39 47 49 51 53 55 57 18 33 27 5 6 6 39 47 48 49 51 53 55 57 24 5 6 16 44 47 49 51 53 55 57 38 28 39 47 49 51 53 55 57 38 28 39 47 49 51 53 55 44 47 49 51 53 56 57 42 47 49 51 53 55 57 45 47 49 51 53 55 57 35 27 40 47 49 51 53 55 57 29 32 46 47 49 51 53 55 57 42 47 49 51 53 55 57 39 47 49 51 53 55 57 29 32 46 47 49 51 53 55 57 39 47 49 51 53 55 57 29 30 30 30 32 36 28 2 4 4 4 4 3 4 3 4 4 4 4 3 4 4 4 4 4 4 1
